p edge 100 99 43
e 1 3
e 1 53
e 1 94
e 2 49
e 3 30
e 3 81
e 4 70
e 5 74
e 6 37
e 6 58
e 7 63
e 8 17
e 8 31
e 8 25
e 8 100
e 9 91
e 10 34
e 11 32
e 11 93
e 11 63
e 11 60
e 12 78
e 13 18
e 14 67
e 14 46
e 14 38
e 15 89
e 16 41
e 16 64
e 18 35
e 18 85
e 19 50
e 19 25
e 20 28
e 20 59
e 20 47
e 21 64
e 21 89
e 22 79
e 22 59
e 23 40
e 24 94
e 24 49
e 25 72
e 26 75
e 26 71
e 26 84
e 27 78
e 27 46
e 29 46
e 30 54
e 30 45
e 32 68
e 33 62
e 33 44
e 33 89
e 34 62
e 36 48
e 36 92
e 36 71
e 38 63
e 39 98
e 40 96
e 40 94
e 42 58
e 42 84
e 43 52
e 44 70
e 45 74
e 47 87
e 47 88
e 48 86
e 49 57
e 51 65
e 51 82
e 51 99
e 51 87
e 52 97
e 52 72
e 53 69
e 55 76
e 56 60
e 56 91
e 57 61
e 58 76
e 61 97
e 63 84
e 63 88
e 66 76
e 67 77
e 69 98
e 72 91
e 73 80
e 73 92
e 74 85
e 75 90
e 81 89
e 83 99
e 95 97
